param totalChannels := 5;
param totalUsers := 2;
param totalPackets := 4;
param tmax := 1000;
param defaultPacketsperPortion := 512;
param: sizeBig availTime needTime :=
1	166	42.325794	284.018646
2	1142	128.613418	380.199863
3	1223	210.885714	463.293292
4	1798	260.101162	518.337647;
param: bw latency begin end :=
1	100.000000	0.000000	0	519.337647
2	830.000000	0.000000	5.887009	58.143835
3	830.000000	0.000000	218.855814	218.856215
4	830.000000	0.000000	219.906197	220.648782
5	830.000000	0.000000	415.248598	861.337726;
param streamUser: 1 2 :=
1 0 1 
2 0 1
3 1 0
4 1 0;
